c Random generated cnf formula, satisfiable: true
p cnf 10 50
1 -7 2 0
1 -6 -4 0
5 -4 8 0
8 -4 6 0
5 -3 4 0
8 5 -4 0
-2 8 4 0
1 3 7 0
-8 -6 -10 0
-4 -6 5 0
-4 -6 1 0
-8 -10 3 0
-4 1 10 0
6 -3 -4 0
7 4 -6 0
8 3 -1 0
1 8 -9 0
2 -6 9 0
1 -3 -2 0
7 8 3 0
5 1 10 0
1 8 -6 0
-3 -2 -9 0
-3 1 -5 0
7 5 2 0
-2 3 -10 0
2 8 -3 0
-5 10 -6 0
-4 2 9 0
2 -5 3 0
-9 6 8 0
4 10 -8 0
-8 -4 -6 0
-7 -3 -5 0
-9 1 8 0
7 -4 -10 0
9 6 -10 0
5 -4 8 0
10 4 2 0
-1 -4 -3 0
3 5 2 0
-1 -10 -6 0
10 -9 -5 0
2 -3 -5 0
2 5 1 0
2 -3 4 0
4 -2 10 0
-1 -3 -5 0
10 7 -4 0
-1 5 -4 0
